# DNA Substitution Model
Type: GTR
pi:   0.25143203728312 0.2339699010077697 0.3192819122955631 0.1953161494135471
R:
                 0  0.174135544187311 0.4570007541933747 0.2465029385001669
 0.174135544187311                  0 0.1531807413945161 0.8350020396890323
0.4570007541933747 0.1531807413945161                  0 0.2002128896019161
0.2465029385001669 0.8350020396890323 0.2002128896019161                  0
Q:
-0.2344024013795348 0.04067338852598574  0.1456646498492522 0.04806436300429683
0.04370901084390707 -0.2553467477719485 0.04882490642332625  0.1628128305047152
 0.1147097854946002 0.03577890911654381 -0.1895271947706834 0.03903850015953942
0.06187363793097368  0.1950340611893144  0.0638159569575452 -0.3207236560778332
